solution status: gap limit reached
objective value:                          34201.97574
y#1                                                 1 	(obj:5700)
y#2                                                 1 	(obj:5700)
y#5                                                 1 	(obj:5700)
y#7                                                 1 	(obj:5700)
y#9                                                 1 	(obj:5700)
y#10                                                1 	(obj:5700)
x#1#7                                               1 	(obj:0.04709)
x#2#9                                               1 	(obj:0.02193)
x#3#10                                              1 	(obj:0.0068)
x#4#2                                               1 	(obj:0.0527)
x#5#9                                               1 	(obj:0.01139)
x#6#5                                               1 	(obj:0.00952)
x#7#7                                               1 	(obj:0.01275)
x#8#5                                               1 	(obj:0.03383)
x#9#1                                               1 	(obj:0.0476)
x#10#7                                              1 	(obj:0.00442)
x#11#1                                              1 	(obj:0.02941)
x#12#10                                             1 	(obj:0.03417)
x#13#9                                              1 	(obj:0.03128)
x#14#5                                              1 	(obj:0.02074)
x#15#9                                              1 	(obj:0.02533)
x#16#7                                              1 	(obj:0.03859)
x#17#2                                              1 	(obj:0.05287)
x#18#9                                              1 	(obj:0.02159)
x#19#2                                              1 	(obj:0.00714)
x#20#2                                              1 	(obj:0.00646)
x#21#1                                              1 	(obj:0.07174)
x#22#1                                              1 	(obj:0.02924)
x#23#7                                              1 	(obj:0.02737)
x#24#7                                              1 	(obj:0.02618)
x#25#2                                              1 	(obj:0.0408)
x#26#10                                             1 	(obj:0.04505)
x#27#10                                             1 	(obj:0.03944)
x#28#7                                              1 	(obj:0.02992)
x#29#10                                             1 	(obj:0.03791)
x#30#5                                              1 	(obj:0.02482)
x#31#10                                             1 	(obj:0.01343)
x#32#1                                              1 	(obj:0.04505)
x#33#10                                             1 	(obj:0.04675)
x#34#7                                              1 	(obj:0.03927)
x#35#2                                              1 	(obj:0.03451)
x#36#10                                             1 	(obj:0.03281)
x#37#1                                              1 	(obj:0.06392)
x#38#5                                              1 	(obj:0.08585)
x#39#7                                              1 	(obj:0.01275)
x#40#9                                              1 	(obj:0.04998)
x#41#1                                              1 	(obj:0.03077)
x#42#7                                              1 	(obj:0.04063)
x#43#1                                              1 	(obj:0.05032)
x#44#10                                             1 	(obj:0.0323)
x#45#9                                              1 	(obj:0.05338)
x#46#10                                             1 	(obj:0.02499)
x#47#9                                              1 	(obj:0.05032)
x#48#5                                              1 	(obj:0.01938)
x#49#2                                              1 	(obj:0.0204)
x#50#5                                              1 	(obj:0.01887)
x#51#9                                              1 	(obj:0.05304)
x#52#1                                              1 	(obj:0.0306)
x#53#1                                              1 	(obj:0.02295)
x#54#1                                              1 	(obj:0.04097)
x#55#1                                              1 	(obj:0.03519)
x#56#9                                              1 	(obj:0.03026)
x#57#5                                              1 	(obj:0.01292)
x#58#2                                              1 	(obj:0.04743)
x#59#2                                              1 	(obj:0.02856)
x#60#5                                              1 	(obj:0.02006)
